code/experiments/eil51_sub/eil51_n17.tsp
NAME : eil51_n17
COMMENT : 17-city problem (Christofides/Eilon)
TYPE : TSP
DIMENSION : 17
EDGE_WEIGHT_TYPE : CEIL_2D
NODE_COORD_SECTION
1 52 64
2 40 30
3 17 63
4 17 33
5 13 13
6 42 57
7 8 52
8 43 67
9 58 27
10 38 46
11 46 10
12 32 22
13 59 15
14 5 64
15 39 10
16 32 39
17 48 28
EOF
