code/experiments/eil51_sub/eil51_n17.opt.tour
17
0 7 2 13 6 3 4 11 14 10 
12 8 16 1 15 9 5 
